c Lingeling SAT Solver
c 
c Version azf 92032848c138b2f33629ad24394d60a3787a1046
c 
c Copyright (C) 2010-2014 Armin Biere JKU Linz Austria.
c All rights reserved.
c 
c released Don Mai 22 22:08:00 CEST 2014
c compiled Mon Oct  6 05:55:43 PDT 2014
c 
c gcc (Ubuntu 4.8.2-19ubuntu1) 4.8.2
c -Wall -O3 -DNDBLSCR -DNLGLOG -DNDEBUG -DNCHKSOL -DNLGLPICOSAT -DNLGLDRUPLIG
c -DNLGLYALSAT
c Linux ubuntu 3.13.0-32-generic x86_64
c 
c reading input file benchmark-sat/translations/gc-2-Insertions_4-4.cnf
c no embedded options
c found 'p cnf 596 3207' header
c read 596 variables, 3207 clauses, 6712 literals in 0.00 seconds
c 
c  seconds         irredundant          redundant clauses agility   height
c          variables clauses conflicts large ternary binary    glue         MB
c 
c S    0.0     596     3207         0       0      0     0   0  0.0   0.0    0
c S    1.0     447     2164     27875    3984      0   447  22 15.7  43.9    1
c S    2.0     447     2164     58916    6878      0   447  23 16.0  43.1    2
c S    5.0     447     2164    135247    4993      0   447  22 17.0  43.1    1
c S   10.0     447     2164    256760   13288      0   447  24 17.7  43.0    3
c S   20.0     447     2164    435039   18856      0   447  23 18.3  42.4    3
c S   30.1     447     2164    681800   15729      0   447  23 18.6  41.9    3
c S   40.0     447     2164    909138   24755      0   447  22 18.7  41.6    5
c S   50.0     447     2164   1122462   21921      0   447  25 18.8  41.3    5
c S   60.0     447     2164   1313082   23923      0   447  22 19.3  40.8    6
c S  120.0     447     2164   2127568   12569      0   447  22 19.3  39.4    4
c S  180.0     447     2164   3360552   39414      0   447  22 19.8  39.5    6
c S  240.1     447     2164   4153867   52888      0   447  21 19.8  39.0    8
c S  300.0     447     2164   4994624   50856      0   447  22 19.9  38.8    7
c S  600.1     447     2164   7726092  107670      0   447  21 19.8  37.2   24
c S  900.0     447     2164  10773379   65514      0   447  22 19.9  37.0    9
